NAME: ETSP
COMMENT: Generated by write_TSPLIB (R package TSP)
TYPE: TSP
DIMENSION: 200
EDGE_WEIGHT_TYPE: EUC_2D
NODE_COORD_SECTION
1 0.000000e+00 0.000000e+00
2 1.000000e+01 0.000000e+00
3 2.000000e+01 0.000000e+00
4 3.000000e+01 0.000000e+00
5 4.000000e+01 0.000000e+00
6 5.000000e+01 0.000000e+00
7 6.000000e+01 0.000000e+00
8 7.000000e+01 0.000000e+00
9 8.000000e+01 0.000000e+00
10 9.000000e+01 0.000000e+00
11 0.000000e+00 1.000000e+01
12 1.000000e+01 1.000000e+01
13 2.000000e+01 1.000000e+01
14 3.000000e+01 1.000000e+01
15 4.000000e+01 1.000000e+01
16 5.000000e+01 1.000000e+01
17 6.000000e+01 1.000000e+01
18 7.000000e+01 1.000000e+01
19 8.000000e+01 1.000000e+01
20 9.000000e+01 1.000000e+01
21 0.000000e+00 2.000000e+01
22 1.000000e+01 2.000000e+01
23 2.000000e+01 2.000000e+01
24 3.000000e+01 2.000000e+01
25 4.000000e+01 2.000000e+01
26 5.000000e+01 2.000000e+01
27 6.000000e+01 2.000000e+01
28 7.000000e+01 2.000000e+01
29 8.000000e+01 2.000000e+01
30 9.000000e+01 2.000000e+01
31 0.000000e+00 3.000000e+01
32 1.000000e+01 3.000000e+01
33 2.000000e+01 3.000000e+01
34 3.000000e+01 3.000000e+01
35 4.000000e+01 3.000000e+01
36 5.000000e+01 3.000000e+01
37 6.000000e+01 3.000000e+01
38 7.000000e+01 3.000000e+01
39 8.000000e+01 3.000000e+01
40 9.000000e+01 3.000000e+01
41 0.000000e+00 4.000000e+01
42 1.000000e+01 4.000000e+01
43 2.000000e+01 4.000000e+01
44 3.000000e+01 4.000000e+01
45 4.000000e+01 4.000000e+01
46 5.000000e+01 4.000000e+01
47 6.000000e+01 4.000000e+01
48 7.000000e+01 4.000000e+01
49 8.000000e+01 4.000000e+01
50 9.000000e+01 4.000000e+01
51 0.000000e+00 5.000000e+01
52 1.000000e+01 5.000000e+01
53 2.000000e+01 5.000000e+01
54 3.000000e+01 5.000000e+01
55 4.000000e+01 5.000000e+01
56 5.000000e+01 5.000000e+01
57 6.000000e+01 5.000000e+01
58 7.000000e+01 5.000000e+01
59 8.000000e+01 5.000000e+01
60 9.000000e+01 5.000000e+01
61 0.000000e+00 6.000000e+01
62 1.000000e+01 6.000000e+01
63 2.000000e+01 6.000000e+01
64 3.000000e+01 6.000000e+01
65 4.000000e+01 6.000000e+01
66 5.000000e+01 6.000000e+01
67 6.000000e+01 6.000000e+01
68 7.000000e+01 6.000000e+01
69 8.000000e+01 6.000000e+01
70 9.000000e+01 6.000000e+01
71 0.000000e+00 7.000000e+01
72 1.000000e+01 7.000000e+01
73 2.000000e+01 7.000000e+01
74 3.000000e+01 7.000000e+01
75 4.000000e+01 7.000000e+01
76 5.000000e+01 7.000000e+01
77 6.000000e+01 7.000000e+01
78 7.000000e+01 7.000000e+01
79 8.000000e+01 7.000000e+01
80 9.000000e+01 7.000000e+01
81 0.000000e+00 8.000000e+01
82 1.000000e+01 8.000000e+01
83 2.000000e+01 8.000000e+01
84 3.000000e+01 8.000000e+01
85 4.000000e+01 8.000000e+01
86 5.000000e+01 8.000000e+01
87 6.000000e+01 8.000000e+01
88 7.000000e+01 8.000000e+01
89 8.000000e+01 8.000000e+01
90 9.000000e+01 8.000000e+01
91 0.000000e+00 9.000000e+01
92 1.000000e+01 9.000000e+01
93 2.000000e+01 9.000000e+01
94 3.000000e+01 9.000000e+01
95 4.000000e+01 9.000000e+01
96 5.000000e+01 9.000000e+01
97 6.000000e+01 9.000000e+01
98 7.000000e+01 9.000000e+01
99 8.000000e+01 9.000000e+01
100 9.000000e+01 9.000000e+01
101 0.000000e+00 1.000000e+02
102 1.000000e+01 1.000000e+02
103 2.000000e+01 1.000000e+02
104 3.000000e+01 1.000000e+02
105 4.000000e+01 1.000000e+02
106 5.000000e+01 1.000000e+02
107 6.000000e+01 1.000000e+02
108 7.000000e+01 1.000000e+02
109 8.000000e+01 1.000000e+02
110 9.000000e+01 1.000000e+02
111 0.000000e+00 1.100000e+02
112 1.000000e+01 1.100000e+02
113 2.000000e+01 1.100000e+02
114 3.000000e+01 1.100000e+02
115 4.000000e+01 1.100000e+02
116 5.000000e+01 1.100000e+02
117 6.000000e+01 1.100000e+02
118 7.000000e+01 1.100000e+02
119 8.000000e+01 1.100000e+02
120 9.000000e+01 1.100000e+02
121 0.000000e+00 1.200000e+02
122 1.000000e+01 1.200000e+02
123 2.000000e+01 1.200000e+02
124 3.000000e+01 1.200000e+02
125 4.000000e+01 1.200000e+02
126 5.000000e+01 1.200000e+02
127 6.000000e+01 1.200000e+02
128 7.000000e+01 1.200000e+02
129 8.000000e+01 1.200000e+02
130 9.000000e+01 1.200000e+02
131 0.000000e+00 1.300000e+02
132 1.000000e+01 1.300000e+02
133 2.000000e+01 1.300000e+02
134 3.000000e+01 1.300000e+02
135 4.000000e+01 1.300000e+02
136 5.000000e+01 1.300000e+02
137 6.000000e+01 1.300000e+02
138 7.000000e+01 1.300000e+02
139 8.000000e+01 1.300000e+02
140 9.000000e+01 1.300000e+02
141 0.000000e+00 1.400000e+02
142 1.000000e+01 1.400000e+02
143 2.000000e+01 1.400000e+02
144 3.000000e+01 1.400000e+02
145 4.000000e+01 1.400000e+02
146 5.000000e+01 1.400000e+02
147 6.000000e+01 1.400000e+02
148 7.000000e+01 1.400000e+02
149 8.000000e+01 1.400000e+02
150 9.000000e+01 1.400000e+02
151 0.000000e+00 1.500000e+02
152 1.000000e+01 1.500000e+02
153 2.000000e+01 1.500000e+02
154 3.000000e+01 1.500000e+02
155 4.000000e+01 1.500000e+02
156 5.000000e+01 1.500000e+02
157 6.000000e+01 1.500000e+02
158 7.000000e+01 1.500000e+02
159 8.000000e+01 1.500000e+02
160 9.000000e+01 1.500000e+02
161 0.000000e+00 1.600000e+02
162 1.000000e+01 1.600000e+02
163 2.000000e+01 1.600000e+02
164 3.000000e+01 1.600000e+02
165 4.000000e+01 1.600000e+02
166 5.000000e+01 1.600000e+02
167 6.000000e+01 1.600000e+02
168 7.000000e+01 1.600000e+02
169 8.000000e+01 1.600000e+02
170 9.000000e+01 1.600000e+02
171 0.000000e+00 1.700000e+02
172 1.000000e+01 1.700000e+02
173 2.000000e+01 1.700000e+02
174 3.000000e+01 1.700000e+02
175 4.000000e+01 1.700000e+02
176 5.000000e+01 1.700000e+02
177 6.000000e+01 1.700000e+02
178 7.000000e+01 1.700000e+02
179 8.000000e+01 1.700000e+02
180 9.000000e+01 1.700000e+02
181 0.000000e+00 1.800000e+02
182 1.000000e+01 1.800000e+02
183 2.000000e+01 1.800000e+02
184 3.000000e+01 1.800000e+02
185 4.000000e+01 1.800000e+02
186 5.000000e+01 1.800000e+02
187 6.000000e+01 1.800000e+02
188 7.000000e+01 1.800000e+02
189 8.000000e+01 1.800000e+02
190 9.000000e+01 1.800000e+02
191 0.000000e+00 1.900000e+02
192 1.000000e+01 1.900000e+02
193 2.000000e+01 1.900000e+02
194 3.000000e+01 1.900000e+02
195 4.000000e+01 1.900000e+02
196 5.000000e+01 1.900000e+02
197 6.000000e+01 1.900000e+02
198 7.000000e+01 1.900000e+02
199 8.000000e+01 1.900000e+02
200 9.000000e+01 1.900000e+02
EOF
